# Solution for model HELLO
# Objective value = 21568
XXXXXXX0 0
XXXXXXX1 0
XXXXXXX2 0
XXXXXXX3 0
XXXXXXX4 0
XXXXXXX5 0
XXXXXXX6 0
XXXXXXX7 0
XXXXXXX8 0
XXXXXXX9 0
XXXXXX10 0
XXXXXX11 0
XXXXXX12 0
XXXXXX13 0
XXXXXX14 0
XXXXXX15 0
XXXXXX16 0
XXXXXX17 0
XXXXXX18 0
XXXXXX19 0
XXXXXX20 0
XXXXXX21 0
XXXXXX22 0
XXXXXX23 0
XXXXXX24 0
XXXXXX25 0
XXXXXX26 0
XXXXXX27 0
XXXXXX28 0
XXXXXX29 0
XXXXXX30 0
XXXXXX31 0
XXXXXX32 0
XXXXXX33 0
XXXXXX34 0
XXXXXX35 0
XXXXXX36 0
XXXXXX37 0
XXXXXX38 0
XXXXXX39 0
XXXXXX40 0
XXXXXX41 0
XXXXXX42 0
XXXXXX43 0
XXXXXX44 0
XXXXXX45 0
XXXXXX46 0
XXXXXX47 0
XXXXXX48 0
XXXXXX49 0
XXXXXX50 0
XXXXXX51 0
XXXXXX52 0
XXXXXX53 0
XXXXXX54 0
XXXXXX55 0
XXXXXX56 0
XXXXXX57 0
XXXXXX58 0
XXXXXX59 0
XXXXXX60 0
XXXXXX61 0
XXXXXX62 0
XXXXXX63 0
XXXXXX64 0
XXXXXX65 0
XXXXXX66 0
XXXXXX67 0
XXXXXX68 0
XXXXXX69 0
XXXXXX70 0
XXXXXX71 0
XXXXXX72 0
XXXXXX73 0
XXXXXX74 0
XXXXXX75 0
XXXXXX76 0
XXXXXX77 0
XXXXXX78 0
XXXXXX79 0
XXXXXX80 0
XXXXXX81 0
XXXXXX82 0
XXXXXX83 0
XXXXXX84 0
XXXXXX85 0
XXXXXX86 0
XXXXXX87 0
XXXXXX88 0
XXXXXX89 0
XXXXXX90 0
XXXXXX91 0
XXXXXX92 0
XXXXXX93 0
XXXXXX94 0
XXXXXX95 0
XXXXXX96 0
XXXXXX97 0
XXXXXX98 0
XXXXXX99 0
XXXXX100 0
XXXXX101 0
XXXXX102 0
XXXXX103 0
XXXXX104 0
XXXXX105 0
XXXXX106 0
XXXXX107 0
XXXXX108 0
XXXXX109 1
XXXXX110 1
XXXXX111 1
XXXXX112 1
XXXXX113 1
XXXXX114 1
XXXXX115 1
XXXXX116 1
XXXXX117 1
XXXXX118 1
XXXXX119 1
XXXXX120 0
XXXXX121 1
XXXXX122 1
XXXXX123 1
XXXXX124 1
XXXXX125 1
XXXXX126 0
XXXXX127 1
XXXXX128 1
XXXXX129 1
XXXXX130 1
XXXXX131 1
XXXXX132 1
XXXXX133 1
XXXXX134 0
XXXXX135 1
XXXXX136 1
XXXXX137 1
XXXXX138 1
XXXXX139 1
XXXXX140 1
XXXXX141 1
XXXXX142 1
XXXXX143 1
XXXXX144 1
XXXXX145 1
XXXXX146 1
XXXXX147 1
XXXXX148 1
XXXXX149 1
XXXXX150 1
XXXXX151 1
XXXXX152 1
XXXXX153 1
XXXXX154 1
XXXXX155 1
XXXXX156 1
XXXXX157 1
XXXXX158 1
XXXXX159 1
XXXXX160 1
XXXXX161 1
XXXXX162 1
XXXXX163 1
XXXXX164 1
XXXXX165 1
XXXXX166 1
XXXXX167 1
XXXXX168 0
XXXXX169 1
XXXXX170 1
XXXXX171 1
XXXXX172 1
XXXXX173 1
XXXXX174 1
XXXXX175 1
XXXXX176 1
XXXXX177 1
XXXXX178 1
XXXXX179 1
XXXXX180 1
XXXXX181 1
XXXXX182 1
XXXXX183 1
XXXXX184 1
XXXXX185 1
XXXXX186 1
XXXXX187 1
XXXXX188 1
XXXXX189 1
XXXXX190 1
XXXXX191 1
XXXXX192 0
XXXXX193 1
XXXXX194 1
XXXXX195 1
XXXXX196 1
XXXXX197 1
XXXXX198 1
XXXXX199 1
XXXXX200 0
XXXXX201 1
XXXXX202 1
XXXXX203 1
XXXXX204 1
XXXXX205 0
XXXXX206 1
XXXXX207 1
XXXXX208 1
XXXXX209 1
XXXXX210 1
XXXXX211 1
XXXXX212 1
XXXXX213 1
XXXXX214 1
XXXXX215 1
XXXXX216 1
XXXXX217 1
XXXXX218 1
XXXXX219 1
XXXXX220 1
XXXXX221 1
XXXXX222 1
XXXXX223 1
XXXXX224 1
XXXXX225 1
XXXXX226 1
XXXXX227 0
XXXXX228 1
XXXXX229 1
XXXXX230 1
XXXXX231 1
XXXXX232 1
XXXXX233 1
XXXXX234 1
XXXXX235 1
XXXXX236 0
XXXXX237 1
XXXXX238 1
XXXXX239 1
XXXXX240 1
XXXXX241 1
XXXXX242 1
XXXXX243 1
XXXXX244 1
XXXXX245 1
XXXXX246 1
XXXXX247 1
XXXXX248 1
XXXXX249 1
XXXXX250 1
XXXXX251 1
XXXXX252 1
XXXXX253 1
XXXXX254 1
XXXXX255 1
XXXXX256 1
XXXXX257 1
XXXXX258 1
XXXXX259 0
XXXXX260 1
XXXXX261 1
XXXXX262 1
XXXXX263 1
XXXXX264 1
XXXXX265 1
XXXXX266 1
XXXXX267 1
XXXXX268 1
XXXXX269 1
XXXXX270 1
XXXXX271 1
XXXXX272 1
XXXXX273 1
XXXXX274 1
XXXXX275 1
XXXXX276 1
XXXXX277 1
XXXXX278 1
XXXXX279 1
XXXXX280 1
XXXXX281 1
XXXXX282 1
XXXXX283 1
XXXXX284 1
XXXXX285 1
XXXXX286 1
XXXXX287 1
XXXXX288 1
XXXXX289 1
XXXXX290 1
XXXXX291 1
XXXXX292 1
XXXXX293 1
XXXXX294 1
XXXXX295 1
XXXXX296 1
XXXXX297 1
XXXXX298 1
XXXXX299 1
XXXXX300 1
XXXXX301 0
XXXXX302 1
XXXXX303 1
XXXXX304 0
XXXXX305 1
XXXXX306 1
XXXXX307 1
XXXXX308 1
XXXXX309 1
XXXXX310 1
XXXXX311 1
XXXXX312 1
XXXXX313 1
XXXXX314 1
XXXXX315 0
XXXXX316 0
XXXXX317 0
XXXXX318 0
XXXXX319 0
XXXXX320 0
XXXXX321 0
XXXXX322 0
XXXXX323 0
XXXXX324 0
XXXXX325 0
XXXXX326 0
XXXXX327 0
XXXXX328 0
XXXXX329 0
XXXXX330 0
XXXXX331 0
XXXXX332 0
XXXXX333 0
XXXXX334 0
XXXXX335 0
XXXXX336 0
XXXXX337 0
XXXXX338 0
XXXXX339 0
XXXXX340 0
XXXXX341 0
XXXXX342 0
XXXXX343 0
XXXXX344 0
XXXXX345 0
XXXXX346 0
XXXXX347 0
XXXXX348 0
XXXXX349 0
XXXXX350 0
XXXXX351 0
XXXXX352 0
XXXXX353 0
XXXXX354 0
XXXXX355 0
XXXXX356 0
XXXXX357 0
XXXXX358 0
XXXXX359 0
XXXXX360 0
XXXXX361 0
XXXXX362 0
XXXXX363 0
XXXXX364 0
XXXXX365 0
XXXXX366 0
XXXXX367 0
XXXXX368 0
XXXXX369 0
XXXXX370 0
XXXXX371 0
XXXXX372 0
XXXXX373 0
XXXXX374 0
XXXXX375 0
XXXXX376 0
XXXXX377 0
XXXXX378 0
XXXXX379 0
XXXXX380 0
XXXXX381 0
XXXXX382 0
XXXXX383 0
XXXXX384 0
XXXXX385 0
XXXXX386 0
XXXXX387 0
XXXXX388 0
XXXXX389 0
XXXXX390 0
XXXXX391 0
XXXXX392 0
XXXXX393 0
XXXXX394 0
XXXXX395 0
XXXXX396 0
XXXXX397 0
XXXXX398 0
XXXXX399 0
XXXXX400 0
XXXXX401 0
XXXXX402 0
XXXXX403 0
XXXXX404 0
XXXXX405 0
XXXXX406 0
XXXXX407 0
XXXXX408 0
XXXXX409 0
XXXXX410 0
XXXXX411 0
XXXXX412 0
XXXXX413 0
XXXXX414 0
XXXXX415 0
XXXXX416 0
XXXXX417 0
XXXXX418 0
XXXXX419 0
XXXXX420 0
XXXXX421 0
XXXXX422 0
XXXXX423 0
XXXXX424 0
XXXXX425 0
XXXXX426 0
XXXXX427 0
XXXXX428 0
XXXXX429 0
XXXXX430 0
XXXXX431 0
XXXXX432 0
XXXXX433 0
XXXXX434 0
XXXXX435 0
XXXXX436 0
XXXXX437 0
XXXXX438 0
XXXXX439 0
XXXXX440 0
XXXXX441 0
XXXXX442 0
XXXXX443 0
XXXXX444 0
XXXXX445 0
XXXXX446 0
XXXXX447 0
XXXXX448 0
XXXXX449 0
XXXXX450 0
XXXXX451 0
XXXXX452 0
XXXXX453 0
XXXXX454 0
XXXXX455 0
XXXXX456 0
XXXXX457 0
XXXXX458 0
XXXXX459 0
XXXXX460 0
XXXXX461 0
XXXXX462 0
XXXXX463 0
XXXXX464 0
XXXXX465 0
XXXXX466 0
XXXXX467 0
XXXXX468 0
XXXXX469 0
XXXXX470 0
XXXXX471 0
XXXXX472 0
XXXXX473 0
XXXXX474 0
XXXXX475 0
XXXXX476 0
XXXXX477 0
XXXXX478 0
XXXXX479 0
XXXXX480 0
XXXXX481 0
XXXXX482 0
XXXXX483 0
XXXXX484 0
XXXXX485 0
XXXXX486 0
XXXXX487 0
XXXXX488 0
XXXXX489 0
XXXXX490 0
XXXXX491 0
XXXXX492 0
XXXXX493 0
XXXXX494 0
XXXXX495 0
XXXXX496 0
XXXXX497 0
XXXXX498 0
XXXXX499 0
XXXXX500 0
XXXXX501 0
XXXXX502 0
XXXXX503 0
XXXXX504 0
XXXXX505 0
XXXXX506 0
XXXXX507 0
XXXXX508 0
XXXXX509 1
XXXXX510 1
XXXXX511 1
XXXXX512 1
XXXXX513 1
XXXXX514 1
XXXXX515 1
XXXXX516 1
XXXXX517 1
XXXXX518 1
XXXXX519 1
XXXXX520 1
XXXXX521 1
XXXXX522 1
XXXXX523 1
XXXXX524 1
XXXXX525 1
XXXXX526 1
XXXXX527 1
XXXXX528 1
XXXXX529 1
XXXXX530 1
XXXXX531 1
XXXXX532 1
XXXXX533 1
XXXXX534 1
XXXXX535 1
XXXXX536 1
XXXXX537 1
XXXXX538 1
XXXXX539 1
XXXXX540 1
XXXXX541 1
XXXXX542 1
XXXXX543 1
XXXXX544 1
XXXXX545 1
XXXXX546 1
XXXXX547 1
XXXXX548 1
XXXXX549 1
XXXXX550 1
XXXXX551 1
XXXXX552 1
XXXXX553 1
XXXXX554 1
XXXXX555 1
XXXXX556 1
XXXXX557 0
XXXXX558 1
XXXXX559 1
XXXXX560 1
XXXXX561 1
XXXXX562 1
XXXXX563 1
XXXXX564 1
XXXXX565 1
XXXXX566 1
XXXXX567 1
XXXXX568 1
XXXXX569 1
XXXXX570 1
XXXXX571 1
XXXXX572 1
XXXXX573 1
XXXXX574 1
XXXXX575 1
XXXXX576 1
XXXXX577 1
XXXXX578 1
XXXXX579 1
XXXXX580 1
XXXXX581 1
XXXXX582 1
XXXXX583 1
XXXXX584 1
XXXXX585 1
XXXXX586 1
XXXXX587 1
XXXXX588 1
XXXXX589 1
XXXXX590 0
XXXXX591 1
XXXXX592 1
XXXXX593 1
XXXXX594 1
XXXXX595 1
XXXXX596 1
XXXXX597 1
XXXXX598 1
XXXXX599 1
XXXXX600 1
XXXXX601 1
XXXXX602 1
XXXXX603 1
XXXXX604 1
XXXXX605 1
XXXXX606 0
XXXXX607 1
XXXXX608 0
XXXXX609 1
XXXXX610 1
XXXXX611 1
XXXXX612 1
XXXXX613 1
XXXXX614 1
XXXXX615 1
XXXXX616 1
XXXXX617 1
XXXXX618 1
XXXXX619 1
XXXXX620 1
XXXXX621 1
XXXXX622 1
XXXXX623 1
XXXXX624 1
XXXXX625 1
XXXXX626 1
XXXXX627 1
XXXXX628 1
XXXXX629 1
XXXXX630 1
XXXXX631 1
XXXXX632 1
XXXXX633 1
XXXXX634 1
XXXXX635 1
XXXXX636 1
XXXXX637 1
XXXXX638 1
XXXXX639 1
XXXXX640 1
XXXXX641 1
XXXXX642 1
XXXXX643 1
XXXXX644 1
XXXXX645 0
XXXXX646 1
XXXXX647 1
XXXXX648 1
XXXXX649 1
XXXXX650 0
XXXXX651 1
XXXXX652 1
XXXXX653 1
XXXXX654 1
XXXXX655 1
XXXXX656 1
XXXXX657 1
XXXXX658 1
XXXXX659 1
XXXXX660 1
XXXXX661 1
XXXXX662 1
XXXXX663 1
XXXXX664 1
XXXXX665 1
XXXXX666 1
XXXXX667 1
XXXXX668 1
XXXXX669 1
XXXXX670 1
XXXXX671 1
XXXXX672 0
XXXXX673 1
XXXXX674 1
XXXXX675 0
XXXXX676 1
XXXXX677 1
XXXXX678 1
XXXXX679 1
XXXXX680 1
XXXXX681 1
XXXXX682 1
XXXXX683 1
XXXXX684 1
XXXXX685 1
XXXXX686 1
XXXXX687 1
XXXXX688 1
XXXXX689 1
XXXXX690 1
XXXXX691 1
XXXXX692 1
XXXXX693 1
XXXXX694 1
XXXXX695 1
XXXXX696 1
XXXXX697 1
XXXXX698 1
XXXXX699 1
XXXXX700 1
XXXXX701 1
XXXXX702 1
XXXXX703 1
XXXXX704 1
XXXXX705 1
XXXXX706 1
XXXXX707 1
XXXXX708 1
XXXXX709 1
XXXXX710 1
XXXXX711 1
XXXXX712 0
XXXXX713 0
XXXXX714 0
XXXXX715 0
XXXXX716 0
XXXXX717 0
XXXXX718 0
XXXXX719 0
XXXXX720 0
XXXXX721 0
XXXXX722 0
XXXXX723 0
XXXXX724 0
XXXXX725 0
XXXXX726 0
XXXXX727 0
XXXXX728 0
XXXXX729 0
XXXXX730 0
XXXXX731 0
XXXXX732 0
XXXXX733 0
XXXXX734 0
XXXXX735 0
XXXXX736 0
XXXXX737 0
XXXXX738 0
XXXXX739 0
XXXXX740 0
XXXXX741 0
XXXXX742 0
XXXXX743 0
XXXXX744 0
XXXXX745 0
XXXXX746 0
XXXXX747 0
XXXXX748 0
XXXXX749 0
XXXXX750 0
XXXXX751 0
XXXXX752 0
XXXXX753 0
XXXXX754 0
XXXXX755 0
XXXXX756 0
XXXXX757 0
XXXXX758 0
XXXXX759 0
XXXXX760 0
XXXXX761 0
XXXXX762 0
XXXXX763 0
XXXXX764 0
XXXXX765 0
XXXXX766 0
XXXXX767 0
XXXXX768 0
XXXXX769 0
XXXXX770 0
XXXXX771 0
XXXXX772 0
XXXXX773 0
XXXXX774 0
XXXXX775 0
XXXXX776 0
XXXXX777 0
XXXXX778 0
XXXXX779 0
XXXXX780 0
XXXXX781 0
XXXXX782 0
XXXXX783 0
XXXXX784 0
XXXXX785 0
XXXXX786 0
XXXXX787 0
XXXXX788 0
XXXXX789 0
XXXXX790 0
XXXXX791 0
XXXXX792 0
XXXXX793 0
XXXXX794 0
XXXXX795 0
XXXXX796 0
XXXXX797 0
XXXXX798 0
XXXXX799 0
XXXXX800 0
XXXXX801 0
XXXXX802 0
XXXXX803 0
XXXXX804 0
XXXXX805 0
XXXXX806 0
XXXXX807 0
XXXXX808 0
XXXXX809 0
XXXXX810 0
XXXXX811 0
XXXXX812 0
XXXXX813 0
XXXXX814 0
XXXXX815 0
XXXXX816 0
XXXXX817 0
XXXXX818 0
XXXXX819 0
XXXXX820 0
XXXXX821 1
XXXXX822 1
XXXXX823 1
XXXXX824 1
XXXXX825 1
XXXXX826 1
XXXXX827 1
XXXXX828 1
XXXXX829 1
XXXXX830 1
XXXXX831 1
XXXXX832 1
XXXXX833 1
XXXXX834 1
XXXXX835 0
XXXXX836 1
XXXXX837 1
XXXXX838 1
XXXXX839 1
XXXXX840 1
XXXXX841 1
XXXXX842 1
XXXXX843 1
XXXXX844 1
XXXXX845 1
XXXXX846 1
XXXXX847 0
XXXXX848 1
XXXXX849 1
XXXXX850 1
XXXXX851 1
XXXXX852 1
XXXXX853 1
XXXXX854 1
XXXXX855 1
XXXXX856 1
XXXXX857 1
XXXXX858 1
XXXXX859 1
XXXXX860 1
XXXXX861 1
XXXXX862 0
XXXXX863 0
XXXXX864 1
XXXXX865 1
XXXXX866 1
XXXXX867 1
XXXXX868 1
XXXXX869 1
XXXXX870 1
XXXXX871 1
XXXXX872 1
XXXXX873 1
XXXXX874 1
XXXXX875 1
XXXXX876 1
XXXXX877 1
XXXXX878 1
XXXXX879 1
XXXXX880 1
XXXXX881 1
XXXXX882 1
XXXXX883 1
XXXXX884 1
XXXXX885 1
XXXXX886 1
XXXXX887 1
XXXXX888 1
XXXXX889 1
XXXXX890 1
XXXXX891 1
XXXXX892 1
XXXXX893 1
XXXXX894 1
XXXXX895 1
XXXXX896 1
XXXXX897 1
XXXXX898 1
XXXXX899 1
XXXXX900 1
XXXXX901 1
XXXXX902 1
XXXXX903 1
XXXXX904 1
XXXXX905 1
XXXXX906 1
XXXXX907 1
XXXXX908 1
XXXXX909 1
XXXXX910 1
XXXXX911 1
XXXXX912 0
XXXXX913 0
XXXXX914 0
XXXXX915 0
XXXXX916 0
XXXXX917 0
XXXXX918 0
XXXXX919 0
XXXXX920 0
XXXXX921 0
XXXXX922 0
XXXXX923 0
XXXXX924 0
XXXXX925 0
XXXXX926 0
XXXXX927 0
XXXXX928 0
XXXXX929 0
XXXXX930 0
XXXXX931 0
XXXXX932 0
XXXXX933 0
XXXXX934 0
XXXXX935 0
XXXXX936 0
XXXXX937 0
XXXXX938 0
XXXXX939 0
XXXXX940 0
XXXXX941 0
XXXXX942 0
XXXXX943 0
XXXXX944 0
XXXXX945 0
XXXXX946 0
XXXXX947 0
XXXXX948 0
XXXXX949 0
XXXXX950 0
XXXXX951 0
XXXXX952 0
XXXXX953 0
XXXXX954 0
XXXXX955 0
XXXXX956 0
XXXXX957 0
XXXXX958 0
XXXXX959 0
XXXXX960 0
XXXXX961 0
XXXXX962 0
XXXXX963 0
XXXXX964 0
XXXXX965 0
XXXXX966 0
XXXXX967 0
XXXXX968 0
XXXXX969 0
XXXXX970 0
XXXXX971 0
XXXXX972 0
XXXXX973 0
XXXXX974 0
XXXXX975 0
XXXXX976 0
XXXXX977 0
XXXXX978 0
XXXXX979 0
XXXXX980 0
XXXXX981 0
XXXXX982 0
XXXXX983 0
XXXXX984 0
XXXXX985 0
XXXXX986 0
XXXXX987 0
XXXXX988 0
XXXXX989 0
XXXXX990 0
XXXXX991 0
XXXXX992 0
XXXXX993 0
XXXXX994 0
XXXXX995 0
XXXXX996 0
XXXXX997 0
XXXXX998 0
XXXXX999 0
YYYYYYY0 0
YYYYYYY1 1
YYYYYYY2 1
YYYYYYY3 0
YYYYYYY4 0
YYYYYYY5 1
YYYYYYY6 1
YYYYYYY7 0
YYYYYYY8 1
YYYYYYY9 0
